% seed = 7281413

mint = 29;
% maxt = 104;

nActs = 22;
dur = [0,5,10,3,2,4,5,7,3,5,9,5,10,2,1,6,8,7,1,3,8,0];

nSkills = 4;
sreq = [| 0,0,0,0,
	| 2,3,0,0,
	| 0,2,2,0,
	| 3,1,0,0,
	| 1,0,0,3,
	| 1,1,0,0,
	| 0,1,3,0,
	| 0,2,0,1,
	| 0,1,0,3,
	| 0,2,0,1,
	| 2,0,0,2,
	| 0,3,2,0,
	| 0,3,3,0,
	| 0,1,0,3,
	| 3,0,3,0,
	| 0,0,3,2,
	| 0,0,2,2,
	| 2,0,0,1,
	| 0,1,1,0,
	| 1,0,0,2,
	| 0,2,3,0,
	| 0,0,0,0, |];

nResources = 13;
mastery = [| true,false,true,true,
	| true,false,true,true,
	| false,false,false,true,
	| true,true,true,false,
	| true,true,false,true,
	| true,false,true,true,
	| true,true,false,true,
	| true,false,false,true,
	| false,true,false,true,
	| false,true,true,false,
	| false,true,false,false,
	| false,false,true,false,
	| true,false,true,false, |];

nPrecs = 37;
pred = [1,1,1,2,3,3,3,4,4,4,5,5,5,6,6,7,7,7,8,8,9,9,10,10,11,12,13,13,14,15,16,16,17,18,19,20,21];
succ = [2,3,4,21,20,12,8,5,7,8,9,13,6,18,20,10,11,18,11,15,19,16,21,14,14,15,17,15,19,19,17,18,20,21,22,22,22];

nUnrels = 118;
unpred = [2,2,2,2,2,2,2,2,2,2,2,2,2,2,2,2,2,2,3,3,3,3,3,3,3,3,3,3,3,4,5,5,5,5,5,5,6,6,6,6,6,6,6,6,6,6,6,6,7,7,7,7,7,7,7,7,8,8,8,8,8,8,8,8,8,9,9,9,9,9,9,10,10,10,10,10,10,10,10,11,11,11,11,11,11,11,11,12,12,12,12,12,12,12,13,13,13,13,14,14,14,14,14,14,15,15,15,15,15,16,17,17,17,18,18,19,19,20];
unsucc = [3,4,5,6,7,8,9,10,11,12,13,14,15,16,17,18,19,20,4,5,6,7,9,10,13,16,17,18,21,12,7,8,10,11,12,14,7,8,9,10,11,12,13,14,15,16,17,19,8,9,12,13,15,16,17,20,9,10,12,13,16,17,18,20,21,10,11,12,13,14,15,11,12,13,15,16,17,18,20,12,13,15,16,17,18,20,21,13,14,16,17,18,20,21,14,16,18,21,15,16,17,18,20,21,16,17,18,20,21,19,18,19,21,19,20,20,21,21];

USEFUL_RES = [{},
	{1,2,4,5,6,7,8,9,10,11,13},
	{1,2,4,5,6,7,9,10,11,12,13},
	{1,2,4,5,6,7,8,9,10,11,13},
	{1,2,3,4,5,6,7,8,9,13},
	{1,2,4,5,6,7,8,9,10,11,13},
	{1,2,4,5,6,7,9,10,11,12,13},
	{1,2,3,4,5,6,7,8,9,10,11},
	{1,2,3,4,5,6,7,8,9,10,11},
	{1,2,3,4,5,6,7,8,9,10,11},
	{1,2,3,4,5,6,7,8,9,13},
	{1,2,4,5,6,7,9,10,11,12,13},
	{1,2,4,5,6,7,9,10,11,12,13},
	{1,2,3,4,5,6,7,8,9,10,11},
	{1,2,4,5,6,7,8,10,12,13},
	{1,2,3,4,5,6,7,8,9,10,12,13},
	{1,2,3,4,5,6,7,8,9,10,12,13},
	{1,2,3,4,5,6,7,8,9,13},
	{1,2,4,5,6,7,9,10,11,12,13},
	{1,2,3,4,5,6,7,8,9,13},
	{1,2,4,5,6,7,9,10,11,12,13},
	{}];

POTENTIAL_ACT = [{2,3,4,5,6,7,8,9,10,11,12,13,14,15,16,17,18,19,20,21},
	{2,3,4,5,6,7,8,9,10,11,12,13,14,15,16,17,18,19,20,21},
	{5,8,9,10,11,14,16,17,18,20},
	{2,3,4,5,6,7,8,9,10,11,12,13,14,15,16,17,18,19,20,21},
	{2,3,4,5,6,7,8,9,10,11,12,13,14,15,16,17,18,19,20,21},
	{2,3,4,5,6,7,8,9,10,11,12,13,14,15,16,17,18,19,20,21},
	{2,3,4,5,6,7,8,9,10,11,12,13,14,15,16,17,18,19,20,21},
	{2,4,5,6,8,9,10,11,14,15,16,17,18,20},
	{2,3,4,5,6,7,8,9,10,11,12,13,14,16,17,18,19,20,21},
	{2,3,4,6,7,8,9,10,12,13,14,15,16,17,19,21},
	{2,3,4,6,7,8,9,10,12,13,14,19,21},
	{3,7,12,13,15,16,17,19,21},
	{2,3,4,5,6,7,11,12,13,15,16,17,18,19,20,21}];
